set N := AA AB AC AD AE AF AG AH AI AJ AK AL AM AN AO AP AQ AR AS AT;

set T := AA AB AC AD AE AF AG AH AI AJ;

table	K={K}	u(K)	o(K)	o_(K):
	K	u	o	o_	:=
	1	14.70	AK	AL
	2	17.04	AM	AN
	3	13.36	AO	AP
	4	10.00	AQ	AR
	5	20.00	AS	AT
;

param c default 0 :=
AA	AB	1	78.71
AA	AB	2	73.35
AA	AB	3	45.48
AA	AB	4	68.97
AA	AB	5	89.01
AA	AC	1	92.62
AA	AC	2	86.31
AA	AC	3	53.52
AA	AC	4	81.16
AA	AC	5	104.73
AA	AD	1	111.32
AA	AD	2	103.73
AA	AD	3	64.32
AA	AD	4	97.54
AA	AD	5	125.88
AA	AE	1	117.57
AA	AE	2	109.55
AA	AE	3	67.93
AA	AE	4	103.01
AA	AE	5	132.94
AA	AF	1	43.66
AA	AF	2	40.69
AA	AF	3	25.23
AA	AF	4	38.26
AA	AF	5	49.37
AA	AG	1	65.49
AA	AG	2	61.03
AA	AG	3	37.84
AA	AG	4	57.39
AA	AG	5	74.06
AA	AH	1	158.94
AA	AH	2	148.10
AA	AH	3	91.84
AA	AH	4	139.26
AA	AH	5	179.72
AA	AI	1	222.64
AA	AI	2	207.46
AA	AI	3	128.65
AA	AI	4	195.08
AA	AI	5	251.75
AA	AJ	1	219.40
AA	AJ	2	204.44
AA	AJ	3	126.78
AA	AJ	4	192.25
AA	AJ	5	248.09
AA	AK	1	44.14
AA	AK	2	41.13
AA	AK	3	25.51
AA	AK	4	38.68
AA	AK	5	49.91
AA	AL	1	162.76
AA	AL	2	151.66
AA	AL	3	94.05
AA	AL	4	142.61
AA	AL	5	184.04
AA	AM	1	34.53
AA	AM	2	32.18
AA	AM	3	19.95
AA	AM	4	30.26
AA	AM	5	39.05
AA	AN	1	116.32
AA	AN	2	108.39
AA	AN	3	67.21
AA	AN	4	101.92
AA	AN	5	131.53
AA	AO	1	141.55
AA	AO	2	131.90
AA	AO	3	81.79
AA	AO	4	124.03
AA	AO	5	160.06
AA	AP	1	90.16
AA	AP	2	84.02
AA	AP	3	52.10
AA	AP	4	79.00
AA	AP	5	101.95
AA	AQ	1	181.44
AA	AQ	2	169.07
AA	AQ	3	104.84
AA	AQ	4	158.98
AA	AQ	5	205.17
AA	AR	1	51.93
AA	AR	2	48.39
AA	AR	3	30.01
AA	AR	4	45.50
AA	AR	5	58.72
AA	AS	1	197.20
AA	AS	2	183.75
AA	AS	3	113.94
AA	AS	4	172.79
AA	AS	5	222.98
AA	AT	1	76.03
AA	AT	2	70.84
AA	AT	3	43.93
AA	AT	4	66.62
AA	AT	5	85.97
AB	AA	1	78.71
AB	AA	2	73.35
AB	AA	3	45.48
AB	AA	4	68.97
AB	AA	5	89.01
AB	AC	1	21.83
AB	AC	2	20.34
AB	AC	3	12.61
AB	AC	4	19.13
AB	AC	5	24.69
AB	AD	1	78.71
AB	AD	2	73.35
AB	AD	3	45.48
AB	AD	4	68.97
AB	AD	5	89.01
AB	AE	1	43.66
AB	AE	2	40.69
AB	AE	3	25.23
AB	AE	4	38.26
AB	AE	5	49.37
AB	AF	1	109.16
AB	AF	2	101.71
AB	AF	3	63.07
AB	AF	4	95.65
AB	AF	5	123.43
AB	AG	1	43.66
AB	AG	2	40.69
AB	AG	3	25.23
AB	AG	4	38.26
AB	AG	5	49.37
AB	AH	1	123.50
AB	AH	2	115.08
AB	AH	3	71.36
AB	AH	4	108.21
AB	AH	5	139.65
AB	AI	1	152.82
AB	AI	2	142.40
AB	AI	3	88.30
AB	AI	4	133.90
AB	AI	5	172.80
AB	AJ	1	166.26
AB	AJ	2	154.93
AB	AJ	3	96.07
AB	AJ	4	145.68
AB	AJ	5	188.00
AB	AK	1	66.47
AB	AK	2	61.94
AB	AK	3	38.41
AB	AK	4	58.24
AB	AK	5	75.16
AB	AL	1	96.62
AB	AL	2	90.03
AB	AL	3	55.83
AB	AL	4	84.66
AB	AL	5	109.26
AB	AM	1	48.67
AB	AM	2	45.35
AB	AM	3	28.12
AB	AM	4	42.64
AB	AM	5	55.03
AB	AN	1	91.58
AB	AN	2	85.34
AB	AN	3	52.92
AB	AN	4	80.24
AB	AN	5	103.56
AB	AO	1	102.04
AB	AO	2	95.08
AB	AO	3	58.96
AB	AO	4	89.41
AB	AO	5	115.38
AB	AP	1	84.34
AB	AP	2	78.59
AB	AP	3	48.73
AB	AP	4	73.90
AB	AP	5	95.37
AB	AQ	1	120.71
AB	AQ	2	112.48
AB	AQ	3	69.75
AB	AQ	4	105.77
AB	AQ	5	136.49
AB	AR	1	63.23
AB	AR	2	58.92
AB	AR	3	36.54
AB	AR	4	55.40
AB	AR	5	71.50
AB	AS	1	137.75
AB	AS	2	128.35
AB	AS	3	79.59
AB	AS	4	120.69
AB	AS	5	155.76
AB	AT	1	30.87
AB	AT	2	28.76
AB	AT	3	17.84
AB	AT	4	27.05
AB	AT	5	34.90
AC	AA	1	92.62
AC	AA	2	86.31
AC	AA	3	53.52
AC	AA	4	81.16
AC	AA	5	104.73
AC	AB	1	21.83
AC	AB	2	20.34
AC	AB	3	12.61
AC	AB	4	19.13
AC	AB	5	24.69
AC	AD	1	97.63
AC	AD	2	90.98
AC	AD	3	56.41
AC	AD	4	85.55
AC	AD	5	110.40
AC	AE	1	48.82
AC	AE	2	45.49
AC	AE	3	28.21
AC	AE	4	42.77
AC	AE	5	55.20
AC	AF	1	127.30
AC	AF	2	118.62
AC	AF	3	73.56
AC	AF	4	111.54
AC	AF	5	143.94
AC	AG	1	65.49
AC	AG	2	61.03
AC	AG	3	37.84
AC	AG	4	57.39
AC	AG	5	74.06
AC	AH	1	139.79
AC	AH	2	130.26
AC	AH	3	80.77
AC	AH	4	122.49
AC	AH	5	158.07
AC	AI	1	154.37
AC	AI	2	143.85
AC	AI	3	89.20
AC	AI	4	135.26
AC	AI	5	174.56
AC	AJ	1	176.01
AC	AJ	2	164.01
AC	AJ	3	101.70
AC	AJ	4	154.22
AC	AJ	5	199.03
AC	AK	1	87.07
AC	AK	2	81.13
AC	AK	3	50.31
AC	AK	4	76.29
AC	AK	5	98.46
AC	AL	1	102.76
AC	AL	2	95.76
AC	AL	3	59.38
AC	AL	4	90.04
AC	AL	5	116.20
AC	AM	1	59.14
AC	AM	2	55.11
AC	AM	3	34.17
AC	AM	4	51.82
AC	AM	5	66.87
AC	AN	1	111.10
AC	AN	2	103.53
AC	AN	3	64.20
AC	AN	4	97.35
AC	AN	5	125.63
AC	AO	1	118.25
AC	AO	2	110.19
AC	AO	3	68.33
AC	AO	4	103.62
AC	AO	5	133.72
AC	AP	1	105.87
AC	AP	2	98.65
AC	AP	3	61.17
AC	AP	4	92.76
AC	AP	5	119.71
AC	AQ	1	128.64
AC	AQ	2	119.87
AC	AQ	3	74.33
AC	AQ	4	112.71
AC	AQ	5	145.46
AC	AR	1	84.49
AC	AR	2	78.73
AC	AR	3	48.82
AC	AR	4	74.03
AC	AR	5	95.54
AC	AS	1	145.66
AC	AS	2	135.73
AC	AS	3	84.16
AC	AS	4	127.63
AC	AS	5	164.70
AC	AT	1	23.75
AC	AT	2	22.13
AC	AT	3	13.72
AC	AT	4	20.81
AC	AT	5	26.85
AD	AA	1	111.32
AD	AA	2	103.73
AD	AA	3	64.32
AD	AA	4	97.54
AD	AA	5	125.88
AD	AB	1	78.71
AD	AB	2	73.35
AD	AB	3	45.48
AD	AB	4	68.97
AD	AB	5	89.01
AD	AC	1	97.63
AD	AC	2	90.98
AD	AC	3	56.41
AD	AC	4	85.55
AD	AC	5	110.40
AD	AE	1	65.49
AD	AE	2	61.03
AD	AE	3	37.84
AD	AE	4	57.39
AD	AE	5	74.06
AD	AF	1	111.32
AD	AF	2	103.73
AD	AF	3	64.32
AD	AF	4	97.54
AD	AF	5	125.88
AD	AG	1	48.82
AD	AG	2	45.49
AD	AG	3	28.21
AD	AG	4	42.77
AD	AG	5	55.20
AD	AH	1	48.82
AD	AH	2	45.49
AD	AH	3	28.21
AD	AH	4	42.77
AD	AH	5	55.20
AD	AI	1	127.30
AD	AI	2	118.62
AD	AI	3	73.56
AD	AI	4	111.54
AD	AI	5	143.94
AD	AJ	1	109.16
AD	AJ	2	101.71
AD	AJ	3	63.07
AD	AJ	4	95.65
AD	AJ	5	123.43
AD	AK	1	68.91
AD	AK	2	64.21
AD	AK	3	39.82
AD	AK	4	60.38
AD	AK	5	77.92
AD	AL	1	70.59
AD	AL	2	65.78
AD	AL	3	40.79
AD	AL	4	61.85
AD	AL	5	79.82
AD	AM	1	103.20
AD	AM	2	96.17
AD	AM	3	59.63
AD	AM	4	90.43
AD	AM	5	116.70
AD	AN	1	14.28
AD	AN	2	13.31
AD	AN	3	8.25
AD	AN	4	12.52
AD	AN	5	16.15
AD	AO	1	30.23
AD	AO	2	28.17
AD	AO	3	17.47
AD	AO	4	26.49
AD	AO	5	34.19
AD	AP	1	32.92
AD	AP	2	30.67
AD	AP	3	19.02
AD	AP	4	28.84
AD	AP	5	37.22
AD	AQ	1	78.48
AD	AQ	2	73.13
AD	AQ	3	45.35
AD	AQ	4	68.77
AD	AQ	5	88.75
AD	AR	1	60.38
AD	AR	2	56.26
AD	AR	3	34.89
AD	AR	4	52.91
AD	AR	5	68.28
AD	AS	1	91.51
AD	AS	2	85.27
AD	AS	3	52.88
AD	AS	4	80.18
AD	AS	5	103.48
AD	AT	1	108.68
AD	AT	2	101.27
AD	AT	3	62.80
AD	AT	4	95.23
AD	AT	5	122.89
AE	AA	1	117.57
AE	AA	2	109.55
AE	AA	3	67.93
AE	AA	4	103.01
AE	AA	5	132.94
AE	AB	1	43.66
AE	AB	2	40.69
AE	AB	3	25.23
AE	AB	4	38.26
AE	AB	5	49.37
AE	AC	1	48.82
AE	AC	2	45.49
AE	AC	3	28.21
AE	AC	4	42.77
AE	AC	5	55.20
AE	AD	1	65.49
AE	AD	2	61.03
AE	AD	3	37.84
AE	AD	4	57.39
AE	AD	5	74.06
AE	AF	1	139.79
AE	AF	2	130.26
AE	AF	3	80.77
AE	AF	4	122.49
AE	AF	5	158.07
AE	AG	1	61.75
AE	AG	2	57.54
AE	AG	3	35.68
AE	AG	4	54.11
AE	AG	5	69.82
AE	AH	1	97.63
AE	AH	2	90.98
AE	AH	3	56.41
AE	AH	4	85.55
AE	AH	5	110.40
AE	AI	1	109.16
AE	AI	2	101.71
AE	AI	3	63.07
AE	AI	4	95.65
AE	AI	5	123.43
AE	AJ	1	127.30
AE	AJ	2	118.62
AE	AJ	3	73.56
AE	AJ	4	111.54
AE	AJ	5	143.94
AE	AK	1	92.30
AE	AK	2	86.01
AE	AK	3	53.33
AE	AK	4	80.88
AE	AK	5	104.37
AE	AL	1	54.21
AE	AL	2	50.51
AE	AL	3	31.32
AE	AL	4	47.50
AE	AL	5	61.29
AE	AM	1	91.21
AE	AM	2	84.99
AE	AM	3	52.70
AE	AM	4	79.92
AE	AM	5	103.14
AE	AN	1	79.72
AE	AN	2	74.28
AE	AN	3	46.06
AE	AN	4	69.85
AE	AN	5	90.14
AE	AO	1	76.86
AE	AO	2	71.62
AE	AO	3	44.41
AE	AO	4	67.35
AE	AO	5	86.91
AE	AP	1	87.46
AE	AP	2	81.49
AE	AP	3	50.53
AE	AP	4	76.63
AE	AP	5	98.89
AE	AQ	1	79.83
AE	AQ	2	74.38
AE	AQ	3	46.13
AE	AQ	4	69.95
AE	AQ	5	90.26
AE	AR	1	85.73
AE	AR	2	79.89
AE	AR	3	49.54
AE	AR	4	75.12
AE	AR	5	96.94
AE	AS	1	96.86
AE	AS	2	90.25
AE	AS	3	55.97
AE	AS	4	84.87
AE	AS	5	109.52
AE	AT	1	70.18
AE	AT	2	65.40
AE	AT	3	40.55
AE	AT	4	61.50
AE	AT	5	79.36
AF	AA	1	43.66
AF	AA	2	40.69
AF	AA	3	25.23
AF	AA	4	38.26
AF	AA	5	49.37
AF	AB	1	109.16
AF	AB	2	101.71
AF	AB	3	63.07
AF	AB	4	95.65
AF	AB	5	123.43
AF	AC	1	127.30
AF	AC	2	118.62
AF	AC	3	73.56
AF	AC	4	111.54
AF	AC	5	143.94
AF	AD	1	111.32
AF	AD	2	103.73
AF	AD	3	64.32
AF	AD	4	97.54
AF	AD	5	125.88
AF	AE	1	139.79
AF	AE	2	130.26
AF	AE	3	80.77
AF	AE	4	122.49
AF	AE	5	158.07
AF	AG	1	78.71
AF	AG	2	73.35
AF	AG	3	45.48
AF	AG	4	68.97
AF	AG	5	89.01
AF	AH	1	152.82
AF	AH	2	142.40
AF	AH	3	88.30
AF	AH	4	133.90
AF	AH	5	172.80
AF	AI	1	235.13
AF	AI	2	219.10
AF	AI	3	135.86
AF	AI	4	206.03
AF	AI	5	265.88
AF	AJ	1	219.40
AF	AJ	2	204.44
AF	AJ	3	126.78
AF	AJ	4	192.25
AF	AJ	5	248.09
AF	AK	1	47.90
AF	AK	2	44.63
AF	AK	3	27.68
AF	AK	4	41.97
AF	AK	5	54.16
AF	AL	1	175.25
AF	AL	2	163.30
AF	AL	3	101.27
AF	AL	4	153.56
AF	AL	5	198.17
AF	AM	1	74.88
AF	AM	2	69.77
AF	AM	3	43.27
AF	AM	4	65.61
AF	AM	5	84.67
AF	AN	1	110.86
AF	AN	2	103.30
AF	AN	3	64.06
AF	AN	4	97.13
AF	AN	5	125.35
AF	AO	1	139.88
AF	AO	2	130.34
AF	AO	3	80.83
AF	AO	4	122.57
AF	AO	5	158.17
AF	AP	1	81.32
AF	AP	2	75.77
AF	AP	3	46.99
AF	AP	4	71.25
AF	AP	5	91.95
AF	AQ	1	188.79
AF	AQ	2	175.91
AF	AQ	3	109.08
AF	AQ	4	165.42
AF	AQ	5	213.47
AF	AR	1	55.56
AF	AR	2	51.77
AF	AR	3	32.10
AF	AR	4	48.68
AF	AR	5	62.83
AF	AS	1	202.67
AF	AS	2	188.85
AF	AS	3	117.11
AF	AS	4	177.58
AF	AS	5	229.17
AF	AT	1	115.02
AF	AT	2	107.18
AF	AT	3	66.46
AF	AT	4	100.79
AF	AT	5	130.06
AG	AA	1	65.49
AG	AA	2	61.03
AG	AA	3	37.84
AG	AA	4	57.39
AG	AA	5	74.06
AG	AB	1	43.66
AG	AB	2	40.69
AG	AB	3	25.23
AG	AB	4	38.26
AG	AB	5	49.37
AG	AC	1	65.49
AG	AC	2	61.03
AG	AC	3	37.84
AG	AC	4	57.39
AG	AC	5	74.06
AG	AD	1	48.82
AG	AD	2	45.49
AG	AD	3	28.21
AG	AD	4	42.77
AG	AD	5	55.20
AG	AE	1	61.75
AG	AE	2	57.54
AG	AE	3	35.68
AG	AE	4	54.11
AG	AE	5	69.82
AG	AF	1	78.71
AG	AF	2	73.35
AG	AF	3	45.48
AG	AF	4	68.97
AG	AF	5	89.01
AG	AH	1	97.63
AG	AH	2	90.98
AG	AH	3	56.41
AG	AH	4	85.55
AG	AH	5	110.40
AG	AI	1	158.94
AG	AI	2	148.10
AG	AI	3	91.84
AG	AI	4	139.26
AG	AI	5	179.72
AG	AJ	1	154.37
AG	AJ	2	143.85
AG	AJ	3	89.20
AG	AJ	4	135.26
AG	AJ	5	174.56
AG	AK	1	30.84
AG	AK	2	28.74
AG	AK	3	17.82
AG	AK	4	27.02
AG	AK	5	34.87
AG	AL	1	98.72
AG	AL	2	91.99
AG	AL	3	57.04
AG	AL	4	86.50
AG	AL	5	111.63
AG	AM	1	54.50
AG	AM	2	50.78
AG	AM	3	31.49
AG	AM	4	47.75
AG	AM	5	61.62
AG	AN	1	57.73
AG	AN	2	53.80
AG	AN	3	33.36
AG	AN	4	50.59
AG	AN	5	65.28
AG	AO	1	78.29
AG	AO	2	72.96
AG	AO	3	45.24
AG	AO	4	68.60
AG	AO	5	88.53
AG	AP	1	42.23
AG	AP	2	39.35
AG	AP	3	24.40
AG	AP	4	37.00
AG	AP	5	47.75
AG	AQ	1	116.08
AG	AQ	2	108.17
AG	AQ	3	67.08
AG	AQ	4	101.71
AG	AQ	5	131.26
AG	AR	1	23.99
AG	AR	2	22.35
AG	AR	3	13.86
AG	AR	4	21.02
AG	AR	5	27.12
AG	AS	1	131.72
AG	AS	2	122.73
AG	AS	3	76.11
AG	AS	4	115.41
AG	AS	5	148.94
AG	AT	1	67.75
AG	AT	2	63.13
AG	AT	3	39.15
AG	AT	4	59.36
AG	AT	5	76.61
AH	AA	1	158.94
AH	AA	2	148.10
AH	AA	3	91.84
AH	AA	4	139.26
AH	AA	5	179.72
AH	AB	1	123.50
AH	AB	2	115.08
AH	AB	3	71.36
AH	AB	4	108.21
AH	AB	5	139.65
AH	AC	1	139.79
AH	AC	2	130.26
AH	AC	3	80.77
AH	AC	4	122.49
AH	AC	5	158.07
AH	AD	1	48.82
AH	AD	2	45.49
AH	AD	3	28.21
AH	AD	4	42.77
AH	AD	5	55.20
AH	AE	1	97.63
AH	AE	2	90.98
AH	AE	3	56.41
AH	AE	4	85.55
AH	AE	5	110.40
AH	AF	1	152.82
AH	AF	2	142.40
AH	AF	3	88.30
AH	AF	4	133.90
AH	AF	5	172.80
AH	AG	1	97.63
AH	AG	2	90.98
AH	AG	3	56.41
AH	AG	4	85.55
AH	AG	5	110.40
AH	AI	1	109.16
AH	AI	2	101.71
AH	AI	3	63.07
AH	AI	4	95.65
AH	AI	5	123.43
AH	AJ	1	69.04
AH	AJ	2	64.33
AH	AJ	3	39.89
AH	AJ	4	60.49
AH	AJ	5	78.06
AH	AK	1	115.38
AH	AK	2	107.51
AH	AK	3	66.67
AH	AK	4	101.10
AH	AK	5	130.47
AH	AL	1	70.62
AH	AL	2	65.80
AH	AL	3	40.80
AH	AL	4	61.88
AH	AL	5	79.85
AH	AM	1	151.98
AH	AM	2	141.62
AH	AM	3	87.82
AH	AM	4	133.17
AH	AM	5	171.86
AH	AN	1	42.91
AH	AN	2	39.98
AH	AN	3	24.79
AH	AN	4	37.60
AH	AN	5	48.52
AH	AO	1	21.55
AH	AO	2	20.08
AH	AO	3	12.45
AH	AO	4	18.88
AH	AO	5	24.36
AH	AP	1	71.76
AH	AP	2	66.87
AH	AP	3	41.47
AH	AP	4	62.88
AH	AP	5	81.15
AH	AQ	1	60.08
AH	AQ	2	55.99
AH	AQ	3	34.72
AH	AQ	4	52.65
AH	AQ	5	67.94
AH	AR	1	107.16
AH	AR	2	99.85
AH	AR	3	61.92
AH	AR	4	93.89
AH	AR	5	121.17
AH	AS	1	64.54
AH	AS	2	60.14
AH	AS	3	37.29
AH	AS	4	56.55
AH	AS	5	72.98
AH	AT	1	154.27
AH	AT	2	143.75
AH	AT	3	89.14
AH	AT	4	135.17
AH	AT	5	174.44
AI	AA	1	222.64
AI	AA	2	207.46
AI	AA	3	128.65
AI	AA	4	195.08
AI	AA	5	251.75
AI	AB	1	152.82
AI	AB	2	142.40
AI	AB	3	88.30
AI	AB	4	133.90
AI	AB	5	172.80
AI	AC	1	154.37
AI	AC	2	143.85
AI	AC	3	89.20
AI	AC	4	135.26
AI	AC	5	174.56
AI	AD	1	127.30
AI	AD	2	118.62
AI	AD	3	73.56
AI	AD	4	111.54
AI	AD	5	143.94
AI	AE	1	109.16
AI	AE	2	101.71
AI	AE	3	63.07
AI	AE	4	95.65
AI	AE	5	123.43
AI	AF	1	235.13
AI	AF	2	219.10
AI	AF	3	135.86
AI	AF	4	206.03
AI	AF	5	265.88
AI	AG	1	158.94
AI	AG	2	148.10
AI	AG	3	91.84
AI	AG	4	139.26
AI	AG	5	179.72
AI	AH	1	109.16
AI	AH	2	101.71
AI	AH	3	63.07
AI	AH	4	95.65
AI	AH	5	123.43
AI	AJ	1	65.49
AI	AJ	2	61.03
AI	AJ	3	37.84
AI	AJ	4	57.39
AI	AJ	5	74.06
AI	AK	1	188.29
AI	AK	2	175.45
AI	AK	3	108.80
AI	AK	4	164.99
AI	AK	5	212.91
AI	AL	1	60.22
AI	AL	2	56.11
AI	AL	3	34.80
AI	AL	4	52.77
AI	AL	5	68.09
AI	AM	1	199.70
AI	AM	2	186.08
AI	AM	3	115.39
AI	AM	4	174.98
AI	AM	5	225.81
AI	AN	1	134.00
AI	AN	2	124.87
AI	AN	3	77.43
AI	AN	4	117.42
AI	AN	5	151.52
AI	AO	1	106.43
AI	AO	2	99.18
AI	AO	3	61.50
AI	AO	4	93.26
AI	AO	5	120.35
AI	AP	1	160.21
AI	AP	2	149.29
AI	AP	3	92.58
AI	AP	4	140.38
AI	AP	5	181.16
AI	AQ	1	50.58
AI	AQ	2	47.13
AI	AQ	3	29.23
AI	AQ	4	44.32
AI	AQ	5	57.19
AI	AR	1	180.03
AI	AR	2	167.76
AI	AR	3	104.03
AI	AR	4	157.75
AI	AR	5	203.57
AI	AS	1	45.63
AI	AS	2	42.52
AI	AS	3	26.37
AI	AS	4	39.98
AI	AS	5	51.60
AI	AT	1	177.59
AI	AT	2	165.48
AI	AT	3	102.62
AI	AT	4	155.61
AI	AT	5	200.81
AJ	AA	1	219.40
AJ	AA	2	204.44
AJ	AA	3	126.78
AJ	AA	4	192.25
AJ	AA	5	248.09
AJ	AB	1	166.26
AJ	AB	2	154.93
AJ	AB	3	96.07
AJ	AB	4	145.68
AJ	AB	5	188.00
AJ	AC	1	176.01
AJ	AC	2	164.01
AJ	AC	3	101.70
AJ	AC	4	154.22
AJ	AC	5	199.03
AJ	AD	1	109.16
AJ	AD	2	101.71
AJ	AD	3	63.07
AJ	AD	4	95.65
AJ	AD	5	123.43
AJ	AE	1	127.30
AJ	AE	2	118.62
AJ	AE	3	73.56
AJ	AE	4	111.54
AJ	AE	5	143.94
AJ	AF	1	219.40
AJ	AF	2	204.44
AJ	AF	3	126.78
AJ	AF	4	192.25
AJ	AF	5	248.09
AJ	AG	1	154.37
AJ	AG	2	143.85
AJ	AG	3	89.20
AJ	AG	4	135.26
AJ	AG	5	174.56
AJ	AH	1	69.04
AJ	AH	2	64.33
AJ	AH	3	39.89
AJ	AH	4	60.49
AJ	AH	5	78.06
AJ	AI	1	65.49
AJ	AI	2	61.03
AJ	AI	3	37.84
AJ	AI	4	57.39
AJ	AI	5	74.06
AJ	AK	1	178.00
AJ	AK	2	165.86
AJ	AK	3	102.85
AJ	AK	4	155.97
AJ	AK	5	201.27
AJ	AL	1	75.31
AJ	AL	2	70.17
AJ	AL	3	43.51
AJ	AL	4	65.99
AJ	AL	5	85.16
AJ	AM	1	205.45
AJ	AM	2	191.44
AJ	AM	3	118.71
AJ	AM	4	180.02
AJ	AM	5	232.32
AJ	AN	1	108.65
AJ	AN	2	101.25
AJ	AN	3	62.78
AJ	AN	4	95.20
AJ	AN	5	122.86
AJ	AO	1	79.59
AJ	AO	2	74.16
AJ	AO	3	45.99
AJ	AO	4	69.74
AJ	AO	5	90.00
AJ	AP	1	138.22
AJ	AP	2	128.79
AJ	AP	3	79.86
AJ	AP	4	121.11
AJ	AP	5	156.29
AJ	AQ	1	48.43
AJ	AQ	2	45.13
AJ	AQ	3	27.99
AJ	AQ	4	42.44
AJ	AQ	5	54.77
AJ	AR	1	169.43
AJ	AR	2	157.88
AJ	AR	3	97.90
AJ	AR	4	148.46
AJ	AR	5	191.59
AJ	AS	1	32.79
AJ	AS	2	30.55
AJ	AS	3	18.95
AJ	AS	4	28.73
AJ	AS	5	37.07
AJ	AT	1	196.02
AJ	AT	2	182.66
AJ	AT	3	113.27
AJ	AT	4	171.76
AJ	AT	5	221.65
AK	AA	1	44.14
AK	AA	2	41.13
AK	AA	3	25.51
AK	AA	4	38.68
AK	AA	5	49.91
AK	AB	1	66.47
AK	AB	2	61.94
AK	AB	3	38.41
AK	AB	4	58.24
AK	AB	5	75.16
AK	AC	1	87.07
AK	AC	2	81.13
AK	AC	3	50.31
AK	AC	4	76.29
AK	AC	5	98.46
AK	AD	1	68.91
AK	AD	2	64.21
AK	AD	3	39.82
AK	AD	4	60.38
AK	AD	5	77.92
AK	AE	1	92.30
AK	AE	2	86.01
AK	AE	3	53.33
AK	AE	4	80.88
AK	AE	5	104.37
AK	AF	1	47.90
AK	AF	2	44.63
AK	AF	3	27.68
AK	AF	4	41.97
AK	AF	5	54.16
AK	AG	1	30.84
AK	AG	2	28.74
AK	AG	3	17.82
AK	AG	4	27.02
AK	AG	5	34.87
AK	AH	1	115.38
AK	AH	2	107.51
AK	AH	3	66.67
AK	AH	4	101.10
AK	AH	5	130.47
AK	AI	1	188.29
AK	AI	2	175.45
AK	AI	3	108.80
AK	AI	4	164.99
AK	AI	5	212.91
AK	AJ	1	178.00
AK	AJ	2	165.86
AK	AJ	3	102.85
AK	AJ	4	155.97
AK	AJ	5	201.27
AL	AA	1	162.76
AL	AA	2	151.66
AL	AA	3	94.05
AL	AA	4	142.61
AL	AA	5	184.04
AL	AB	1	96.62
AL	AB	2	90.03
AL	AB	3	55.83
AL	AB	4	84.66
AL	AB	5	109.26
AL	AC	1	102.76
AL	AC	2	95.76
AL	AC	3	59.38
AL	AC	4	90.04
AL	AC	5	116.20
AL	AD	1	70.59
AL	AD	2	65.78
AL	AD	3	40.79
AL	AD	4	61.85
AL	AD	5	79.82
AL	AE	1	54.21
AL	AE	2	50.51
AL	AE	3	31.32
AL	AE	4	47.50
AL	AE	5	61.29
AL	AF	1	175.25
AL	AF	2	163.30
AL	AF	3	101.27
AL	AF	4	153.56
AL	AF	5	198.17
AL	AG	1	98.72
AL	AG	2	91.99
AL	AG	3	57.04
AL	AG	4	86.50
AL	AG	5	111.63
AL	AH	1	70.62
AL	AH	2	65.80
AL	AH	3	40.80
AL	AH	4	61.88
AL	AH	5	79.85
AL	AI	1	60.22
AL	AI	2	56.11
AL	AI	3	34.80
AL	AI	4	52.77
AL	AI	5	68.09
AL	AJ	1	75.31
AL	AJ	2	70.17
AL	AJ	3	43.51
AL	AJ	4	65.99
AL	AJ	5	85.16
AM	AA	1	34.53
AM	AA	2	32.18
AM	AA	3	19.95
AM	AA	4	30.26
AM	AA	5	39.05
AM	AB	1	48.67
AM	AB	2	45.35
AM	AB	3	28.12
AM	AB	4	42.64
AM	AB	5	55.03
AM	AC	1	59.14
AM	AC	2	55.11
AM	AC	3	34.17
AM	AC	4	51.82
AM	AC	5	66.87
AM	AD	1	103.20
AM	AD	2	96.17
AM	AD	3	59.63
AM	AD	4	90.43
AM	AD	5	116.70
AM	AE	1	91.21
AM	AE	2	84.99
AM	AE	3	52.70
AM	AE	4	79.92
AM	AE	5	103.14
AM	AF	1	74.88
AM	AF	2	69.77
AM	AF	3	43.27
AM	AF	4	65.61
AM	AF	5	84.67
AM	AG	1	54.50
AM	AG	2	50.78
AM	AG	3	31.49
AM	AG	4	47.75
AM	AG	5	61.62
AM	AH	1	151.98
AM	AH	2	141.62
AM	AH	3	87.82
AM	AH	4	133.17
AM	AH	5	171.86
AM	AI	1	199.70
AM	AI	2	186.08
AM	AI	3	115.39
AM	AI	4	174.98
AM	AI	5	225.81
AM	AJ	1	205.45
AM	AJ	2	191.44
AM	AJ	3	118.71
AM	AJ	4	180.02
AM	AJ	5	232.32
AN	AA	1	116.32
AN	AA	2	108.39
AN	AA	3	67.21
AN	AA	4	101.92
AN	AA	5	131.53
AN	AB	1	91.58
AN	AB	2	85.34
AN	AB	3	52.92
AN	AB	4	80.24
AN	AB	5	103.56
AN	AC	1	111.10
AN	AC	2	103.53
AN	AC	3	64.20
AN	AC	4	97.35
AN	AC	5	125.63
AN	AD	1	14.28
AN	AD	2	13.31
AN	AD	3	8.25
AN	AD	4	12.52
AN	AD	5	16.15
AN	AE	1	79.72
AN	AE	2	74.28
AN	AE	3	46.06
AN	AE	4	69.85
AN	AE	5	90.14
AN	AF	1	110.86
AN	AF	2	103.30
AN	AF	3	64.06
AN	AF	4	97.13
AN	AF	5	125.35
AN	AG	1	57.73
AN	AG	2	53.80
AN	AG	3	33.36
AN	AG	4	50.59
AN	AG	5	65.28
AN	AH	1	42.91
AN	AH	2	39.98
AN	AH	3	24.79
AN	AH	4	37.60
AN	AH	5	48.52
AN	AI	1	134.00
AN	AI	2	124.87
AN	AI	3	77.43
AN	AI	4	117.42
AN	AI	5	151.52
AN	AJ	1	108.65
AN	AJ	2	101.25
AN	AJ	3	62.78
AN	AJ	4	95.20
AN	AJ	5	122.86
AO	AA	1	141.55
AO	AA	2	131.90
AO	AA	3	81.79
AO	AA	4	124.03
AO	AA	5	160.06
AO	AB	1	102.04
AO	AB	2	95.08
AO	AB	3	58.96
AO	AB	4	89.41
AO	AB	5	115.38
AO	AC	1	118.25
AO	AC	2	110.19
AO	AC	3	68.33
AO	AC	4	103.62
AO	AC	5	133.72
AO	AD	1	30.23
AO	AD	2	28.17
AO	AD	3	17.47
AO	AD	4	26.49
AO	AD	5	34.19
AO	AE	1	76.86
AO	AE	2	71.62
AO	AE	3	44.41
AO	AE	4	67.35
AO	AE	5	86.91
AO	AF	1	139.88
AO	AF	2	130.34
AO	AF	3	80.83
AO	AF	4	122.57
AO	AF	5	158.17
AO	AG	1	78.29
AO	AG	2	72.96
AO	AG	3	45.24
AO	AG	4	68.60
AO	AG	5	88.53
AO	AH	1	21.55
AO	AH	2	20.08
AO	AH	3	12.45
AO	AH	4	18.88
AO	AH	5	24.36
AO	AI	1	106.43
AO	AI	2	99.18
AO	AI	3	61.50
AO	AI	4	93.26
AO	AI	5	120.35
AO	AJ	1	79.59
AO	AJ	2	74.16
AO	AJ	3	45.99
AO	AJ	4	69.74
AO	AJ	5	90.00
AP	AA	1	90.16
AP	AA	2	84.02
AP	AA	3	52.10
AP	AA	4	79.00
AP	AA	5	101.95
AP	AB	1	84.34
AP	AB	2	78.59
AP	AB	3	48.73
AP	AB	4	73.90
AP	AB	5	95.37
AP	AC	1	105.87
AP	AC	2	98.65
AP	AC	3	61.17
AP	AC	4	92.76
AP	AC	5	119.71
AP	AD	1	32.92
AP	AD	2	30.67
AP	AD	3	19.02
AP	AD	4	28.84
AP	AD	5	37.22
AP	AE	1	87.46
AP	AE	2	81.49
AP	AE	3	50.53
AP	AE	4	76.63
AP	AE	5	98.89
AP	AF	1	81.32
AP	AF	2	75.77
AP	AF	3	46.99
AP	AF	4	71.25
AP	AF	5	91.95
AP	AG	1	42.23
AP	AG	2	39.35
AP	AG	3	24.40
AP	AG	4	37.00
AP	AG	5	47.75
AP	AH	1	71.76
AP	AH	2	66.87
AP	AH	3	41.47
AP	AH	4	62.88
AP	AH	5	81.15
AP	AI	1	160.21
AP	AI	2	149.29
AP	AI	3	92.58
AP	AI	4	140.38
AP	AI	5	181.16
AP	AJ	1	138.22
AP	AJ	2	128.79
AP	AJ	3	79.86
AP	AJ	4	121.11
AP	AJ	5	156.29
AQ	AA	1	181.44
AQ	AA	2	169.07
AQ	AA	3	104.84
AQ	AA	4	158.98
AQ	AA	5	205.17
AQ	AB	1	120.71
AQ	AB	2	112.48
AQ	AB	3	69.75
AQ	AB	4	105.77
AQ	AB	5	136.49
AQ	AC	1	128.64
AQ	AC	2	119.87
AQ	AC	3	74.33
AQ	AC	4	112.71
AQ	AC	5	145.46
AQ	AD	1	78.48
AQ	AD	2	73.13
AQ	AD	3	45.35
AQ	AD	4	68.77
AQ	AD	5	88.75
AQ	AE	1	79.83
AQ	AE	2	74.38
AQ	AE	3	46.13
AQ	AE	4	69.95
AQ	AE	5	90.26
AQ	AF	1	188.79
AQ	AF	2	175.91
AQ	AF	3	109.08
AQ	AF	4	165.42
AQ	AF	5	213.47
AQ	AG	1	116.08
AQ	AG	2	108.17
AQ	AG	3	67.08
AQ	AG	4	101.71
AQ	AG	5	131.26
AQ	AH	1	60.08
AQ	AH	2	55.99
AQ	AH	3	34.72
AQ	AH	4	52.65
AQ	AH	5	67.94
AQ	AI	1	50.58
AQ	AI	2	47.13
AQ	AI	3	29.23
AQ	AI	4	44.32
AQ	AI	5	57.19
AQ	AJ	1	48.43
AQ	AJ	2	45.13
AQ	AJ	3	27.99
AQ	AJ	4	42.44
AQ	AJ	5	54.77
AR	AA	1	51.93
AR	AA	2	48.39
AR	AA	3	30.01
AR	AA	4	45.50
AR	AA	5	58.72
AR	AB	1	63.23
AR	AB	2	58.92
AR	AB	3	36.54
AR	AB	4	55.40
AR	AB	5	71.50
AR	AC	1	84.49
AR	AC	2	78.73
AR	AC	3	48.82
AR	AC	4	74.03
AR	AC	5	95.54
AR	AD	1	60.38
AR	AD	2	56.26
AR	AD	3	34.89
AR	AD	4	52.91
AR	AD	5	68.28
AR	AE	1	85.73
AR	AE	2	79.89
AR	AE	3	49.54
AR	AE	4	75.12
AR	AE	5	96.94
AR	AF	1	55.56
AR	AF	2	51.77
AR	AF	3	32.10
AR	AF	4	48.68
AR	AF	5	62.83
AR	AG	1	23.99
AR	AG	2	22.35
AR	AG	3	13.86
AR	AG	4	21.02
AR	AG	5	27.12
AR	AH	1	107.16
AR	AH	2	99.85
AR	AH	3	61.92
AR	AH	4	93.89
AR	AH	5	121.17
AR	AI	1	180.03
AR	AI	2	167.76
AR	AI	3	104.03
AR	AI	4	157.75
AR	AI	5	203.57
AR	AJ	1	169.43
AR	AJ	2	157.88
AR	AJ	3	97.90
AR	AJ	4	148.46
AR	AJ	5	191.59
AS	AA	1	197.20
AS	AA	2	183.75
AS	AA	3	113.94
AS	AA	4	172.79
AS	AA	5	222.98
AS	AB	1	137.75
AS	AB	2	128.35
AS	AB	3	79.59
AS	AB	4	120.69
AS	AB	5	155.76
AS	AC	1	145.66
AS	AC	2	135.73
AS	AC	3	84.16
AS	AC	4	127.63
AS	AC	5	164.70
AS	AD	1	91.51
AS	AD	2	85.27
AS	AD	3	52.88
AS	AD	4	80.18
AS	AD	5	103.48
AS	AE	1	96.86
AS	AE	2	90.25
AS	AE	3	55.97
AS	AE	4	84.87
AS	AE	5	109.52
AS	AF	1	202.67
AS	AF	2	188.85
AS	AF	3	117.11
AS	AF	4	177.58
AS	AF	5	229.17
AS	AG	1	131.72
AS	AG	2	122.73
AS	AG	3	76.11
AS	AG	4	115.41
AS	AG	5	148.94
AS	AH	1	64.54
AS	AH	2	60.14
AS	AH	3	37.29
AS	AH	4	56.55
AS	AH	5	72.98
AS	AI	1	45.63
AS	AI	2	42.52
AS	AI	3	26.37
AS	AI	4	39.98
AS	AI	5	51.60
AS	AJ	1	32.79
AS	AJ	2	30.55
AS	AJ	3	18.95
AS	AJ	4	28.73
AS	AJ	5	37.07
AT	AA	1	76.03
AT	AA	2	70.84
AT	AA	3	43.93
AT	AA	4	66.62
AT	AA	5	85.97
AT	AB	1	30.87
AT	AB	2	28.76
AT	AB	3	17.84
AT	AB	4	27.05
AT	AB	5	34.90
AT	AC	1	23.75
AT	AC	2	22.13
AT	AC	3	13.72
AT	AC	4	20.81
AT	AC	5	26.85
AT	AD	1	108.68
AT	AD	2	101.27
AT	AD	3	62.80
AT	AD	4	95.23
AT	AD	5	122.89
AT	AE	1	70.18
AT	AE	2	65.40
AT	AE	3	40.55
AT	AE	4	61.50
AT	AE	5	79.36
AT	AF	1	115.02
AT	AF	2	107.18
AT	AF	3	66.46
AT	AF	4	100.79
AT	AF	5	130.06
AT	AG	1	67.75
AT	AG	2	63.13
AT	AG	3	39.15
AT	AG	4	59.36
AT	AG	5	76.61
AT	AH	1	154.27
AT	AH	2	143.75
AT	AH	3	89.14
AT	AH	4	135.17
AT	AH	5	174.44
AT	AI	1	177.59
AT	AI	2	165.48
AT	AI	3	102.62
AT	AI	4	155.61
AT	AI	5	200.81
AT	AJ	1	196.02
AT	AJ	2	182.66
AT	AJ	3	113.27
AT	AJ	4	171.76
AT	AJ	5	221.65
;

table R={R}  q(R)  p(R)  d(R):
	R	q	p	d	:=
	1	10.0	AA	AF
	2	10.0	AB	AG
	3	10.0	AC	AH
	4	20.0	AD	AI
	5	20.0	AE	AJ
;

